2 15
693 389 
0 34 92 11 10 59 40 2
1 19 36 27 71 73 91 1
2 36 66 45 37 94 45 2
3 20 91 97 38 76 73 1
4 54 88 30 31 99 53 2
5 17 50 26 96 65 6 2
6 34 5 90 32 21 2 1
7 40 100 72 38 58 69 2
8 87 41 39 16 24 17 1
9 91 78 59 33 6 78 2
10 43 60 28 6 25 35 2
11 23 7 96 18 1 91 2
12 19 64 80 7 100 36 1
13 34 64 75 3 98 71 1
14 83 25 48 51 7 41 1
